NAME : Unnamed.345.tour
COMMENT : Length = 345
COMMENT : Found by LKH [Keld Helsgaun] Thu Oct 02 13:46:48 2014
TYPE : TOUR
DIMENSION : 19
TOUR_SECTION
1
6
9
12
11
16
13
15
18
14
10
2
3
8
7
4
19
5
17
-1
EOF
